1385.37 0
0 95 187 72 118 25 163 148 92 135 146 18 73 145 63 117 0
0 87 167 179 99 13 123 128 70 19 8 102 176 46 175 0
0 127 34 65 177 133 14 69 108 38 119 71 100 168 0
0 169 10 77 165 164 85 134 84 170 11 52 150 0
0 96 159 49 116 62 185 115 90 41 190 43 33 0
0 12 50 129 80 131 31 162 75 189 57 40 17 0
0 60 178 78 35 180 132 7 51 149 26 81 126 0
0 15 154 124 37 88 138 20 166 122 36 155 48 120 0
0 193 194 158 184 199 136 1 191 196 66 112 0
0 188 16 67 104 183 23 160 192 53 198 61 0
0 182 74 144 24 107 181 147 106 44 55 3 151 0
0 86 186 93 22 91 113 137 89 143 68 42 197 195 105 6 0
0 32 97 161 56 110 9 39 109 130 76 0
0 54 98 45 153 79 83 27 58 111 4 0
0 101 64 28 156 141 142 114 94 140 121 82 174 21 171 0
0 152 2 157 139 30 172 173 47 103 5 59 29 125 0
